c generated by sgen
p cnf 105 220
-2 -3 -4 0
-1 -3 -4 0
-1 -2 -4 0
-1 -2 -3 0
-6 -7 -8 0
-5 -7 -8 0
-5 -6 -8 0
-5 -6 -7 0
-10 -11 -12 0
-9 -11 -12 0
-9 -10 -12 0
-9 -10 -11 0
-14 -15 -16 0
-13 -15 -16 0
-13 -14 -16 0
-13 -14 -15 0
-18 -19 -20 0
-17 -19 -20 0
-17 -18 -20 0
-17 -18 -19 0
-22 -23 -24 0
-21 -23 -24 0
-21 -22 -24 0
-21 -22 -23 0
-26 -27 -28 0
-25 -27 -28 0
-25 -26 -28 0
-25 -26 -27 0
-30 -31 -32 0
-29 -31 -32 0
-29 -30 -32 0
-29 -30 -31 0
-34 -35 -36 0
-33 -35 -36 0
-33 -34 -36 0
-33 -34 -35 0
-38 -39 -40 0
-37 -39 -40 0
-37 -38 -40 0
-37 -38 -39 0
-42 -43 -44 0
-41 -43 -44 0
-41 -42 -44 0
-41 -42 -43 0
-46 -47 -48 0
-45 -47 -48 0
-45 -46 -48 0
-45 -46 -47 0
-50 -51 -52 0
-49 -51 -52 0
-49 -50 -52 0
-49 -50 -51 0
-54 -55 -56 0
-53 -55 -56 0
-53 -54 -56 0
-53 -54 -55 0
-58 -59 -60 0
-57 -59 -60 0
-57 -58 -60 0
-57 -58 -59 0
-62 -63 -64 0
-61 -63 -64 0
-61 -62 -64 0
-61 -62 -63 0
-66 -67 -68 0
-65 -67 -68 0
-65 -66 -68 0
-65 -66 -67 0
-70 -71 -72 0
-69 -71 -72 0
-69 -70 -72 0
-69 -70 -71 0
-74 -75 -76 0
-73 -75 -76 0
-73 -74 -76 0
-73 -74 -75 0
-78 -79 -80 0
-77 -79 -80 0
-77 -78 -80 0
-77 -78 -79 0
-82 -83 -84 0
-81 -83 -84 0
-81 -82 -84 0
-81 -82 -83 0
-86 -87 -88 0
-85 -87 -88 0
-85 -86 -88 0
-85 -86 -87 0
-90 -91 -92 0
-89 -91 -92 0
-89 -90 -92 0
-89 -90 -91 0
-94 -95 -96 0
-93 -95 -96 0
-93 -94 -96 0
-93 -94 -95 0
-98 -99 -100 0
-97 -99 -100 0
-97 -98 -100 0
-97 -98 -99 0
-101 -102 -103 0
-101 -102 -104 0
-101 -102 -105 0
-101 -103 -104 0
-101 -103 -105 0
-101 -104 -105 0
-102 -103 -104 0
-102 -103 -105 0
-102 -104 -105 0
-103 -104 -105 0
90 53 25 0
46 53 25 0
46 90 25 0
46 90 53 0
81 39 76 0
7 39 76 0
7 81 76 0
7 81 39 0
77 98 61 0
13 98 61 0
13 77 61 0
13 77 98 0
73 86 104 0
48 86 104 0
48 73 104 0
48 73 86 0
93 63 28 0
83 63 28 0
83 93 28 0
83 93 63 0
71 9 56 0
105 9 56 0
105 71 56 0
105 71 9 0
69 65 97 0
30 65 97 0
30 69 97 0
30 69 65 0
52 95 15 0
32 95 15 0
32 52 15 0
32 52 95 0
66 38 96 0
35 38 96 0
35 66 96 0
35 66 38 0
4 94 47 0
20 94 47 0
20 4 47 0
20 4 94 0
31 36 45 0
8 36 45 0
8 31 45 0
8 31 36 0
88 62 58 0
6 62 58 0
6 88 58 0
6 88 62 0
19 22 100 0
85 22 100 0
85 19 100 0
85 19 22 0
75 43 64 0
92 43 64 0
92 75 64 0
92 75 43 0
67 18 78 0
26 18 78 0
26 67 78 0
26 67 18 0
27 44 5 0
102 44 5 0
102 27 5 0
102 27 44 0
57 72 84 0
103 72 84 0
103 57 84 0
103 57 72 0
79 21 37 0
91 21 37 0
91 79 37 0
91 79 21 0
68 14 11 0
60 14 11 0
60 68 11 0
60 68 14 0
82 51 10 0
23 51 10 0
23 82 10 0
23 82 51 0
29 54 41 0
17 54 41 0
17 29 41 0
17 29 54 0
34 50 101 0
80 50 101 0
80 34 101 0
80 34 50 0
55 2 24 0
74 2 24 0
74 55 24 0
74 55 2 0
87 12 3 0
42 12 3 0
42 87 3 0
42 87 12 0
33 89 70 0
16 89 70 0
16 33 70 0
16 33 89 0
99 1 49 0
99 1 59 0
99 1 40 0
99 49 59 0
99 49 40 0
99 59 40 0
1 49 59 0
1 49 40 0
1 59 40 0
49 59 40 0
